(set-info :source |printed by MathSAT|)
(declare-fun call__PRODUCER_CONSUMMER_.ite6 () Int)
(declare-fun call_Sofar.flby.next () Bool)
(declare-fun i () Int)
(declare-fun call__PRODUCER_CONSUMMER_.flby4 () Int)
(declare-fun call_First.First () Int)
(declare-fun param_etat1 () Bool)
(declare-fun call__PRODUCER_CONSUMMER_.ite7.next () Int)
(declare-fun b () Int)
(declare-fun call_First.flby () Int)
(declare-fun call_Sofar.Sofar.next () Bool)
(declare-fun call__PRODUCER_CONSUMMER_.ite11.next () Int)
(declare-fun call__PRODUCER_CONSUMMER_.flby2.next () Int)
(declare-fun call__PRODUCER_CONSUMMER_.ite10.next () Int)
(declare-fun param_etat3.next () Bool)
(declare-fun call__PRODUCER_CONSUMMER_.flby5.next () Int)
(declare-fun call__PRODUCER_CONSUMMER_.a () Int)
(declare-fun o2 () Int)
(declare-fun call__PRODUCER_CONSUMMER_.garde1.next () Bool)
(declare-fun call__PRODUCER_CONSUMMER_.ite4 () Int)
(declare-fun call__PRODUCER_CONSUMMER_.a.next () Int)
(declare-fun o2.next () Int)
(declare-fun call_Sofar.flby () Bool)
(declare-fun call__PRODUCER_CONSUMMER_.ite8.next () Int)
(declare-fun call_excludes3.excludes.next () Bool)
(declare-fun call_FirstB.flby.next () Bool)
(declare-fun call__PRODUCER_CONSUMMER_.ite4.next () Int)
(declare-fun call__PRODUCER_CONSUMMER_.ite7 () Int)
(declare-fun _OK_ () Bool)
(declare-fun param_etat2 () Bool)
(declare-fun call_FirstB.flby () Bool)
(declare-fun a () Int)
(declare-fun call__PRODUCER_CONSUMMER_.ite5 () Int)
(declare-fun call__PRODUCER_CONSUMMER_.i.next () Int)
(declare-fun call__PRODUCER_CONSUMMER_.garde2.next () Bool)
(declare-fun call__PRODUCER_CONSUMMER_.i () Int)
(declare-fun call__PRODUCER_CONSUMMER_.flby () Int)
(declare-fun call_FirstB.First.next () Bool)
(declare-fun b.next () Int)
(declare-fun call__PRODUCER_CONSUMMER_.flby4.next () Int)
(declare-fun call__PRODUCER_CONSUMMER_.b () Int)
(declare-fun env () Bool)
(declare-fun call__PRODUCER_CONSUMMER_.ite3.next () Int)
(declare-fun call__PRODUCER_CONSUMMER_.flby3.next () Int)
(declare-fun call__PRODUCER_CONSUMMER_.flby3 () Int)
(declare-fun call__PRODUCER_CONSUMMER_.ite.next () Int)
(declare-fun call__PRODUCER_CONSUMMER_.o1.next () Int)
(declare-fun call__PRODUCER_CONSUMMER_.ite2.next () Int)
(declare-fun o1 () Int)
(declare-fun call_excludes3.excludes () Bool)
(declare-fun call__PRODUCER_CONSUMMER_.ite6.next () Int)
(declare-fun o1.next () Int)
(declare-fun call__PRODUCER_CONSUMMER_.o2.next () Int)
(declare-fun call__PRODUCER_CONSUMMER_.flby2 () Int)
(declare-fun call_FirstB.First () Bool)
(declare-fun call__PRODUCER_CONSUMMER_.flby5 () Int)
(declare-fun call__PRODUCER_CONSUMMER_.o2 () Int)
(declare-fun a.next () Int)
(declare-fun call__PRODUCER_CONSUMMER_.ite9.next () Int)
(declare-fun call__PRODUCER_CONSUMMER_.b.next () Int)
(declare-fun call_First.First.next () Int)
(declare-fun call_First.flby.next () Int)
(declare-fun call__PRODUCER_CONSUMMER_.ite5.next () Int)
(declare-fun flby () Bool)
(declare-fun i.next () Int)
(declare-fun param_etat3 () Bool)
(declare-fun call__PRODUCER_CONSUMMER_.garde3.next () Bool)
(declare-fun call__PRODUCER_CONSUMMER_.ite3 () Int)
(declare-fun call__PRODUCER_CONSUMMER_.o1 () Int)
(declare-fun param_etat1.next () Bool)
(declare-fun flby.next () Bool)
(declare-fun param_etat2.next () Bool)
(declare-fun call_Sofar.Sofar () Bool)
(declare-fun _OK_.next () Bool)
(declare-fun env.next () Bool)
(declare-fun call__PRODUCER_CONSUMMER_.flby.next () Int)
(define-fun .def_690 () Bool (= call_First.flby.next call_First.First.next))
(define-fun .def_688 () Bool (= call_FirstB.flby.next call_FirstB.First.next))
(define-fun .def_686 () Bool (= call_Sofar.flby.next call_Sofar.Sofar.next))
(define-fun .def_680 () Bool (and param_etat2.next param_etat1.next))
(define-fun .def_679 () Bool (and param_etat3.next param_etat1.next))
(define-fun .def_681 () Bool (or .def_679 .def_680))
(define-fun .def_678 () Bool (and param_etat2.next param_etat3.next))
(define-fun .def_682 () Bool (or .def_678 .def_681))
(define-fun .def_683 () Bool (not .def_682))
(define-fun .def_684 () Bool (= call_excludes3.excludes.next .def_683))
(define-fun .def_676 () Bool (= call__PRODUCER_CONSUMMER_.flby5.next call__PRODUCER_CONSUMMER_.o2.next))
(define-fun .def_674 () Bool (= call__PRODUCER_CONSUMMER_.flby4.next call__PRODUCER_CONSUMMER_.o1.next))
(define-fun .def_672 () Bool (= call__PRODUCER_CONSUMMER_.flby3.next call__PRODUCER_CONSUMMER_.a.next))
(define-fun .def_670 () Bool (= call__PRODUCER_CONSUMMER_.flby2.next call__PRODUCER_CONSUMMER_.b.next))
(define-fun .def_668 () Bool (= call__PRODUCER_CONSUMMER_.flby.next call__PRODUCER_CONSUMMER_.i.next))
(define-fun .def_664 () Bool (= call__PRODUCER_CONSUMMER_.ite4.next call__PRODUCER_CONSUMMER_.ite6.next))
(define-fun .def_520 () Bool (not param_etat2.next))
(define-fun .def_665 () Bool (or .def_520 .def_664))
(define-fun .def_662 () Bool (= call__PRODUCER_CONSUMMER_.ite5.next call__PRODUCER_CONSUMMER_.ite6.next))
(define-fun .def_663 () Bool (or param_etat2.next .def_662))
(define-fun .def_666 () Bool (and .def_663 .def_665))
(define-fun .def_658 () Bool (= call__PRODUCER_CONSUMMER_.ite3.next call__PRODUCER_CONSUMMER_.ite7.next))
(define-fun .def_511 () Bool (not param_etat1.next))
(define-fun .def_659 () Bool (or .def_511 .def_658))
(define-fun .def_656 () Bool (= call__PRODUCER_CONSUMMER_.ite7.next call__PRODUCER_CONSUMMER_.ite6.next))
(define-fun .def_657 () Bool (or param_etat1.next .def_656))
(define-fun .def_660 () Bool (and .def_657 .def_659))
(define-fun .def_650 () Bool (<= call_First.First.next 0))
(define-fun .def_651 () Bool (not .def_650))
(define-fun .def_648 () Bool (and call_Sofar.Sofar.next call_FirstB.First.next))
(define-fun .def_652 () Bool (and .def_648 .def_651))
(define-fun .def_653 () Bool (= env.next .def_652))
(define-fun .def_644 () Bool (= o2.next call__PRODUCER_CONSUMMER_.o2.next))
(define-fun .def_640 () Bool (= o1.next call__PRODUCER_CONSUMMER_.o1.next))
(define-fun .def_637 () Bool (= a.next call__PRODUCER_CONSUMMER_.a.next))
(define-fun .def_633 () Bool (= b.next call__PRODUCER_CONSUMMER_.b.next))
(define-fun .def_629 () Bool (= i.next call__PRODUCER_CONSUMMER_.i.next))
(define-fun .def_624 () Bool (<= 0 i.next))
(define-fun .def_625 () Bool (and flby.next .def_624))
(define-fun .def_622 () Bool (not env.next))
(define-fun .def_626 () Bool (or .def_622 .def_625))
(define-fun .def_627 () Bool (= _OK_.next .def_626))
(define-fun .def_630 () Bool (and .def_627 .def_629))
(define-fun .def_634 () Bool (and .def_630 .def_633))
(define-fun .def_638 () Bool (and .def_634 .def_637))
(define-fun .def_641 () Bool (and .def_638 .def_640))
(define-fun .def_645 () Bool (and .def_641 .def_644))
(define-fun .def_654 () Bool (and .def_645 .def_653))
(define-fun .def_661 () Bool (and .def_654 .def_660))
(define-fun .def_667 () Bool (and .def_661 .def_666))
(define-fun .def_669 () Bool (and .def_667 .def_668))
(define-fun .def_671 () Bool (and .def_669 .def_670))
(define-fun .def_673 () Bool (and .def_671 .def_672))
(define-fun .def_675 () Bool (and .def_673 .def_674))
(define-fun .def_677 () Bool (and .def_675 .def_676))
(define-fun .def_685 () Bool (and .def_677 .def_684))
(define-fun .def_687 () Bool (and .def_685 .def_686))
(define-fun .def_689 () Bool (and .def_687 .def_688))
(define-fun .def_691 () Bool (and .def_689 .def_690))
(define-fun .def_480 () Bool (= call_First.flby call_First.First))
(define-fun .def_478 () Bool (= call_FirstB.flby call_FirstB.First))
(define-fun .def_476 () Bool (= call_Sofar.flby call_Sofar.Sofar))
(define-fun .def_470 () Bool (and param_etat1 param_etat2))
(define-fun .def_469 () Bool (and param_etat3 param_etat1))
(define-fun .def_471 () Bool (or .def_469 .def_470))
(define-fun .def_468 () Bool (and param_etat3 param_etat2))
(define-fun .def_472 () Bool (or .def_468 .def_471))
(define-fun .def_473 () Bool (not .def_472))
(define-fun .def_474 () Bool (= call_excludes3.excludes .def_473))
(define-fun .def_466 () Bool (= call__PRODUCER_CONSUMMER_.flby5 call__PRODUCER_CONSUMMER_.o2))
(define-fun .def_464 () Bool (= call__PRODUCER_CONSUMMER_.flby4 call__PRODUCER_CONSUMMER_.o1))
(define-fun .def_462 () Bool (= call__PRODUCER_CONSUMMER_.a call__PRODUCER_CONSUMMER_.flby3))
(define-fun .def_460 () Bool (= call__PRODUCER_CONSUMMER_.flby2 call__PRODUCER_CONSUMMER_.b))
(define-fun .def_458 () Bool (= call__PRODUCER_CONSUMMER_.flby call__PRODUCER_CONSUMMER_.i))
(define-fun .def_454 () Bool (= call__PRODUCER_CONSUMMER_.ite6 call__PRODUCER_CONSUMMER_.ite4))
(define-fun .def_372 () Bool (not param_etat2))
(define-fun .def_455 () Bool (or .def_372 .def_454))
(define-fun .def_451 () Bool (= call__PRODUCER_CONSUMMER_.ite6 call__PRODUCER_CONSUMMER_.ite5))
(define-fun .def_452 () Bool (or param_etat2 .def_451))
(define-fun .def_456 () Bool (and .def_452 .def_455))
(define-fun .def_446 () Bool (= call__PRODUCER_CONSUMMER_.ite7 call__PRODUCER_CONSUMMER_.ite3))
(define-fun .def_365 () Bool (not param_etat1))
(define-fun .def_447 () Bool (or .def_365 .def_446))
(define-fun .def_443 () Bool (= call__PRODUCER_CONSUMMER_.ite7 call__PRODUCER_CONSUMMER_.ite6))
(define-fun .def_444 () Bool (or param_etat1 .def_443))
(define-fun .def_448 () Bool (and .def_444 .def_447))
(define-fun .def_436 () Bool (<= call_First.First 0))
(define-fun .def_437 () Bool (not .def_436))
(define-fun .def_434 () Bool (and call_Sofar.Sofar call_FirstB.First))
(define-fun .def_438 () Bool (and .def_434 .def_437))
(define-fun .def_439 () Bool (= env .def_438))
(define-fun .def_430 () Bool (= o2 call__PRODUCER_CONSUMMER_.o2))
(define-fun .def_426 () Bool (= o1 call__PRODUCER_CONSUMMER_.o1))
(define-fun .def_422 () Bool (= call__PRODUCER_CONSUMMER_.a a))
(define-fun .def_419 () Bool (= b call__PRODUCER_CONSUMMER_.b))
(define-fun .def_415 () Bool (= i call__PRODUCER_CONSUMMER_.i))
(define-fun .def_410 () Bool (<= 0 i))
(define-fun .def_411 () Bool (and flby .def_410))
(define-fun .def_408 () Bool (not env))
(define-fun .def_412 () Bool (or .def_408 .def_411))
(define-fun .def_413 () Bool (= _OK_ .def_412))
(define-fun .def_416 () Bool (and .def_413 .def_415))
(define-fun .def_420 () Bool (and .def_416 .def_419))
(define-fun .def_423 () Bool (and .def_420 .def_422))
(define-fun .def_427 () Bool (and .def_423 .def_426))
(define-fun .def_431 () Bool (and .def_427 .def_430))
(define-fun .def_440 () Bool (and .def_431 .def_439))
(define-fun .def_449 () Bool (and .def_440 .def_448))
(define-fun .def_457 () Bool (and .def_449 .def_456))
(define-fun .def_459 () Bool (and .def_457 .def_458))
(define-fun .def_461 () Bool (and .def_459 .def_460))
(define-fun .def_463 () Bool (and .def_461 .def_462))
(define-fun .def_465 () Bool (and .def_463 .def_464))
(define-fun .def_467 () Bool (and .def_465 .def_466))
(define-fun .def_475 () Bool (and .def_467 .def_474))
(define-fun .def_477 () Bool (and .def_475 .def_476))
(define-fun .def_479 () Bool (and .def_477 .def_478))
(define-fun .def_481 () Bool (and .def_479 .def_480))
(define-fun .def_692 () Bool (and .def_481 .def_691))
(define-fun .def_618 () Bool (= call_First.First call_First.flby.next))
(define-fun .def_615 () Bool (= call_FirstB.First call_FirstB.flby.next))
(define-fun .def_605 () Bool (or param_etat2.next param_etat1.next))
(define-fun .def_606 () Bool (or param_etat3.next .def_605))
(define-fun .def_607 () Bool (not .def_606))
(define-fun .def_609 () Bool (or .def_607 call_excludes3.excludes.next))
(define-fun .def_610 () Bool (and call_Sofar.Sofar .def_609))
(define-fun .def_612 () Bool (= .def_610 call_Sofar.flby.next))
(define-fun .def_603 () Bool (= call__PRODUCER_CONSUMMER_.ite11.next call__PRODUCER_CONSUMMER_.flby5.next))
(define-fun .def_600 () Bool (= call__PRODUCER_CONSUMMER_.ite9.next call__PRODUCER_CONSUMMER_.flby4.next))
(define-fun .def_597 () Bool (= call__PRODUCER_CONSUMMER_.a call__PRODUCER_CONSUMMER_.flby3.next))
(define-fun .def_594 () Bool (= call__PRODUCER_CONSUMMER_.ite7.next call__PRODUCER_CONSUMMER_.flby2.next))
(define-fun .def_590 () Bool (= call__PRODUCER_CONSUMMER_.ite2.next call__PRODUCER_CONSUMMER_.flby.next))
(define-fun .def_584 () Bool (<= 1 call__PRODUCER_CONSUMMER_.b))
(define-fun .def_587 () Bool (= call__PRODUCER_CONSUMMER_.garde3.next .def_584))
(define-fun .def_585 () Bool (= call__PRODUCER_CONSUMMER_.garde2.next .def_584))
(define-fun .def_581 () Bool (<= 1 call__PRODUCER_CONSUMMER_.i))
(define-fun .def_582 () Bool (= call__PRODUCER_CONSUMMER_.garde1.next .def_581))
(define-fun .def_575 () Int (* (- 1) call__PRODUCER_CONSUMMER_.ite10.next))
(define-fun .def_576 () Int (+ call__PRODUCER_CONSUMMER_.o2 .def_575))
(define-fun .def_577 () Bool (= .def_576 (- 1)))
(define-fun .def_558 () Bool (not call__PRODUCER_CONSUMMER_.garde3.next))
(define-fun .def_578 () Bool (or .def_558 .def_577))
(define-fun .def_573 () Bool (= call__PRODUCER_CONSUMMER_.o2 call__PRODUCER_CONSUMMER_.ite10.next))
(define-fun .def_574 () Bool (or call__PRODUCER_CONSUMMER_.garde3.next .def_573))
(define-fun .def_579 () Bool (and .def_574 .def_578))
(define-fun .def_567 () Int (* (- 1) call__PRODUCER_CONSUMMER_.ite8.next))
(define-fun .def_568 () Int (+ call__PRODUCER_CONSUMMER_.o1 .def_567))
(define-fun .def_569 () Bool (= .def_568 (- 1)))
(define-fun .def_547 () Bool (not call__PRODUCER_CONSUMMER_.garde2.next))
(define-fun .def_570 () Bool (or .def_547 .def_569))
(define-fun .def_565 () Bool (= call__PRODUCER_CONSUMMER_.o1 call__PRODUCER_CONSUMMER_.ite8.next))
(define-fun .def_566 () Bool (or call__PRODUCER_CONSUMMER_.garde2.next .def_565))
(define-fun .def_571 () Bool (and .def_566 .def_570))
(define-fun .def_561 () Bool (= call__PRODUCER_CONSUMMER_.b call__PRODUCER_CONSUMMER_.ite5.next))
(define-fun .def_562 () Bool (or call__PRODUCER_CONSUMMER_.garde3.next .def_561))
(define-fun .def_554 () Int (* (- 1) call__PRODUCER_CONSUMMER_.ite5.next))
(define-fun .def_555 () Int (+ call__PRODUCER_CONSUMMER_.b .def_554))
(define-fun .def_556 () Bool (= .def_555 1))
(define-fun .def_559 () Bool (or .def_556 .def_558))
(define-fun .def_550 () Bool (= call__PRODUCER_CONSUMMER_.b call__PRODUCER_CONSUMMER_.ite4.next))
(define-fun .def_551 () Bool (or call__PRODUCER_CONSUMMER_.garde2.next .def_550))
(define-fun .def_543 () Int (* (- 1) call__PRODUCER_CONSUMMER_.ite4.next))
(define-fun .def_544 () Int (+ call__PRODUCER_CONSUMMER_.b .def_543))
(define-fun .def_545 () Bool (= .def_544 1))
(define-fun .def_548 () Bool (or .def_545 .def_547))
(define-fun .def_537 () Int (* (- 1) call__PRODUCER_CONSUMMER_.ite3.next))
(define-fun .def_538 () Int (+ call__PRODUCER_CONSUMMER_.b .def_537))
(define-fun .def_539 () Bool (= .def_538 (- 1)))
(define-fun .def_530 () Bool (not call__PRODUCER_CONSUMMER_.garde1.next))
(define-fun .def_540 () Bool (or .def_530 .def_539))
(define-fun .def_535 () Bool (= call__PRODUCER_CONSUMMER_.b call__PRODUCER_CONSUMMER_.ite3.next))
(define-fun .def_536 () Bool (or call__PRODUCER_CONSUMMER_.garde1.next .def_535))
(define-fun .def_541 () Bool (and .def_536 .def_540))
(define-fun .def_549 () Bool (and .def_541 .def_548))
(define-fun .def_552 () Bool (and .def_549 .def_551))
(define-fun .def_560 () Bool (and .def_552 .def_559))
(define-fun .def_563 () Bool (and .def_560 .def_562))
(define-fun .def_527 () Int (* (- 1) call__PRODUCER_CONSUMMER_.ite.next))
(define-fun .def_528 () Int (+ call__PRODUCER_CONSUMMER_.i .def_527))
(define-fun .def_529 () Bool (= .def_528 1))
(define-fun .def_531 () Bool (or .def_529 .def_530))
(define-fun .def_524 () Bool (= call__PRODUCER_CONSUMMER_.i call__PRODUCER_CONSUMMER_.ite.next))
(define-fun .def_526 () Bool (or .def_524 call__PRODUCER_CONSUMMER_.garde1.next))
(define-fun .def_532 () Bool (and .def_526 .def_531))
(define-fun .def_519 () Bool (= call__PRODUCER_CONSUMMER_.ite9.next call__PRODUCER_CONSUMMER_.ite8.next))
(define-fun .def_521 () Bool (or .def_519 .def_520))
(define-fun .def_516 () Bool (= call__PRODUCER_CONSUMMER_.o1 call__PRODUCER_CONSUMMER_.ite9.next))
(define-fun .def_517 () Bool (or param_etat2.next .def_516))
(define-fun .def_522 () Bool (and .def_517 .def_521))
(define-fun .def_510 () Bool (= call__PRODUCER_CONSUMMER_.ite2.next call__PRODUCER_CONSUMMER_.ite.next))
(define-fun .def_512 () Bool (or .def_510 .def_511))
(define-fun .def_506 () Bool (= call__PRODUCER_CONSUMMER_.i call__PRODUCER_CONSUMMER_.ite2.next))
(define-fun .def_508 () Bool (or .def_506 param_etat1.next))
(define-fun .def_513 () Bool (and .def_508 .def_512))
(define-fun .def_501 () Bool (not param_etat3.next))
(define-fun .def_500 () Bool (= call__PRODUCER_CONSUMMER_.ite11.next call__PRODUCER_CONSUMMER_.ite10.next))
(define-fun .def_502 () Bool (or .def_500 .def_501))
(define-fun .def_496 () Bool (= call__PRODUCER_CONSUMMER_.o2 call__PRODUCER_CONSUMMER_.ite11.next))
(define-fun .def_498 () Bool (or .def_496 param_etat3.next))
(define-fun .def_503 () Bool (and .def_498 .def_502))
(define-fun .def_488 () Int (* (- 1) o1.next))
(define-fun .def_489 () Int (+ o1 .def_488))
(define-fun .def_490 () Bool (= .def_489 (- 1)))
(define-fun .def_487 () Bool (= o1 o1.next))
(define-fun .def_491 () Bool (or .def_487 .def_490))
(define-fun .def_484 () Bool (and param_etat1 param_etat2.next))
(define-fun .def_485 () Bool (not .def_484))
(define-fun .def_492 () Bool (or .def_485 .def_491))
(define-fun .def_494 () Bool (= .def_492 flby.next))
(define-fun .def_504 () Bool (and .def_494 .def_503))
(define-fun .def_514 () Bool (and .def_504 .def_513))
(define-fun .def_523 () Bool (and .def_514 .def_522))
(define-fun .def_533 () Bool (and .def_523 .def_532))
(define-fun .def_564 () Bool (and .def_533 .def_563))
(define-fun .def_572 () Bool (and .def_564 .def_571))
(define-fun .def_580 () Bool (and .def_572 .def_579))
(define-fun .def_583 () Bool (and .def_580 .def_582))
(define-fun .def_586 () Bool (and .def_583 .def_585))
(define-fun .def_588 () Bool (and .def_586 .def_587))
(define-fun .def_591 () Bool (and .def_588 .def_590))
(define-fun .def_595 () Bool (and .def_591 .def_594))
(define-fun .def_598 () Bool (and .def_595 .def_597))
(define-fun .def_601 () Bool (and .def_598 .def_600))
(define-fun .def_604 () Bool (and .def_601 .def_603))
(define-fun .def_613 () Bool (and .def_604 .def_612))
(define-fun .def_616 () Bool (and .def_613 .def_615))
(define-fun .def_619 () Bool (and .def_616 .def_618))
(define-fun .def_693 () Bool (and .def_619 .def_692))
(assert .def_693)
